(set-option :smt.auto-config false)
(set-option :smt.mbqi false)
(set-option :sat.random_seed 488)
(set-option :smt.random_seed 599)
(set-option :nlsat.seed 611)
(set-option :memory_max_size 6000)
(declare-fun both_ptr (Int Int Int) Int)
(declare-sort RegExStr 0)
(declare-sort RMode 0)
(assert (! (forall ((apy0 Int)(bpy0 Int)(sizepy0 Int)) (! (<= (* (both_ptr apy0 bpy0 sizepy0) sizepy0) (+ apy0 (* (- 1) bpy0))) :pattern ((both_ptr apy0 bpy0 sizepy0)) )) :named A0))
(check-sat)
(get-info :reason-unknown)